356,457
441,528
658,258
718,169
773,121
630,81
681,-14
317,142
464,-21
773,121
829,383
753,458
613,539
321,766
356,457
554,279
658,258
563,388
560,494
831,406
1006,457
737,761
909,332
893,194
829,383
672,378
624,388
977,702
1069,688
753,458
554,279
317,142
425,489
704,554
746,820
468,514
385,452
441,406
624,388
560,494
468,514
518,726
477,806
831,406
